NAME : Euclidean Random Tour : n = 100, sample = 8 
COMMENT : Coordinates are generated uniformly sampled from [0, 100000] x [0, 100000] 
DIMENSION : 100 
EDGE_WEIGHT_TYPE : EUC_2D 
TOUR_SECTION 
1
4
77
14
15
32
48
28
99
63
73
95
66
93
94
6
21
24
97
62
11
26
57
29
53
90
16
76
78
54
34
7
96
46
71
2
22
84
25
59
89
12
44
56
86
5
47
20
36
70
85
74
3
40
67
100
45
60
35
27
51
81
61
8
82
83
13
65
43
10
42
75
41
33
37
79
80
91
19
18
92
17
52
49
30
39
88
50
68
38
64
69
58
72
55
87
23
31
98
9
-1
